# Objective value = 3.0295913088122040e+02
x[0] 0
x[1] 0
x[2] 1
x[3] 0
x[4] 1
x[5] 0
x[6] 1
x[7] 1
x[8] 9.9999991393301779e-01
x[9] 0
x[10] 1
x[11] 9.9999997510433025e-01
x[12] 0
x[13] 0
x[14] 1
x[15] 0
x[16] 1
x[17] 1
x[18] 1
x[19] -1.3083065502216517e-07
x[20] 0
x[21] 0
x[22] 0
x[23] 7.4629229085335681e-08
x[24] 1
x[25] 0
x[26] 0
x[27] 0
x[28] 0
x[29] 0
x[30] 0
x[31] 0
x[32] 0
x[33] 1
x[34] 1
x[35] 1.0000002234535470e+00
x[36] 1.3365559565115949e-07
x[37] 1
x[38] 0
x[39] 1
x[40] 1
x[41] 0
x[42] 1
x[43] 9.9999977983254507e-01
x[44] -8.94003153728562e-08
x[45] 1
x[46] 0
x[47] 0
x[48] 0
x[49] 1
x[50] 9.9999977983254507e-01
x[51] 0
x[52] 0
x[53] 1.3403630499427537e-07
x[54] 0
x[55] 1
x[56] 1
x[57] 0
x[58] 0
x[59] 1
x[60] 9.9999986589952683e-01
x[61] 2.2345744681829282e-07
x[62] 1
x[63] 1.0000000893538294e+00
x[64] 1
x[65] 1
x[66] 0
x[67] 1
x[68] 0
x[69] 0
x[70] 1
x[71] 9.9999992531299076e-01
x[72] -2.2350078837662934e-07
x[73] 1
x[74] 1.9838910906095711e-07
x[75] 1
x[76] 0
x[77] 1
x[78] 1
x[79] 1
x[80] 1
x[81] 1
x[82] 1.34009290416602e-07
x[83] 0
x[84] -8.6854724523632854e-08
x[85] -2.1762186429374409e-07
x[86] 0
x[87] 9.9999991229377316e-01
x[88] 9.9999998644729238e-01
x[89] 1
x[90] 0
x[91] 1.3467151284796976e-08
x[92] 1
x[93] 0
x[94] 0
x[95] 0
x[96] 1
x[97] 9.9999991647860886e-01
x[98] 7.4639975429331236e-08
x[99] 0
x[100] 0
x[101] 0
x[102] 0
x[103] 9.9999977649921190e-01
x[104] 1
x[105] 0
x[106] 1
x[107] 1
x[108] 0
x[109] 0
x[110] 1
x[111] 1
x[112] 0
x[113] 1
x[114] 1
x[115] 0.999999804728215
x[116] 0
x[117] 1
x[118] 0
x[119] 0
x[120] 1
x[121] 9.9999999144729235e-01
x[122] 0
x[123] 0
x[124] 1.0000000739549866e+00
x[125] 1
x[126] 7.4623861436812329e-08
x[127] 0
x[128] 1
x[129] 0
x[130] 1
x[131] 0
x[132] 0
x[133] -8.1854724523632848e-08
x[134] 1
x[135] 1
x[136] 0
x[137] 1
x[138] 0
x[139] 0
x[140] 1.0000000739615240e+00
x[141] 1
x[142] 0
x[143] 0
x[144] 9.9999982374496010e-01
x[145] 1
x[146] 1
x[147] 1
x[148] 7.4579064900919651e-08
x[149] 1.3404920675328473e-07
x[150] 0
x[151] 0
x[152] 1
x[153] 0
x[154] 1
x[155] 0
x[156] 0
x[157] 0
x[158] 0
x[159] 9.9999992864632414e-01
x[160] 1
x[161] 0
x[162] 0
x[163] 0
x[164] 1.3405453125203432e-07
x[165] 1
x[166] 0
x[167] 1
x[168] 1
x[169] 0
x[170] 1
x[171] 0
x[172] 1
x[173] 0
x[174] 0
x[175] 2.2341315211002237e-07
x[176] 1
x[177] 0
x[178] 0
x[179] 0
x[180] 1
x[181] 0
x[182] 1
x[183] 0
x[184] 0
x[185] 1
x[186] 0
x[187] 0
x[188] 1
x[189] -7.4015601647658968e-08
x[190] 1
x[191] 1
x[192] 0
x[193] 1
x[194] 1
x[195] 0
x[196] 1
x[197] 1
x[198] 9.9999986589952683e-01
x[199] 1
x[200] 0
x[201] 1
x[202] 9.9999986923286022e-01
x[203] 0
x[204] 0
x[205] -8.4501335887289837e-08
x[206] 1.9836189257002362e-07
x[207] 1
x[208] 0
x[209] 1
x[210] 1
x[211] 9.9999977983254529e-01
x[212] 1
x[213] 0
x[214] 1
x[215] 1
x[216] 1.0000000892245782e+00
x[217] 0
x[218] 0
x[219] 9.9999980139488165e-01
x[220] 0
x[221] 0
x[222] 1.0000000866641232e+00
x[223] 0
x[224] 1
x[225] 0
x[226] 0
x[227] 0
x[228] 1
x[229] 1
x[230] 1
x[231] 1
x[232] 0
x[233] 1
x[234] 1
x[235] 1
x[236] 0
x[237] 1
x[238] 0
x[239] 1
x[240] 0
x[241] 9.9999980139488165e-01
x[242] 1
x[243] 8.7414521037615e-08
x[244] -2.2350078834517851e-07
x[245] 1
x[246] 0
x[247] 1
x[248] 0
x[249] 0
x[250] 1
x[251] 0
x[252] 0
x[253] 1
x[254] 0
x[255] 1.9849062420116354e-07
x[256] 1
x[257] 1
x[258] 1
x[259] 0
x[260] 0
x[261] 1
x[262] 0
x[263] 1
x[264] 0
x[265] 1
x[266] 0
x[267] 0
x[268] 2.4568404102328616e-08
x[269] 1
x[270] 9.9999978139819112e-01
x[271] 0
x[272] 1
x[273] 0
x[274] 1
x[275] 1
x[276] 9.9999992598439835e-01
x[277] 0
x[278] 0
x[279] 0
x[280] 0
x[281] 1
x[282] 0
x[283] 0
x[284] 1
x[285] 1
x[286] 0
x[287] 1
x[288] 1.0000000893393410e+00
x[289] 1.0000002209077454e+00
x[290] 0
x[291] 1
x[292] 0
x[293] 2.2070347937643346e-07
x[294] 0
x[295] 0
x[296] 1
x[297] 1
x[298] -4.3060912889214172e-08
x[299] 1
x[300] 0
x[301] 0
x[302] 0
x[303] 1
x[304] 1
x[305] 1
x[306] 0
x[307] 1
x[308] 1
x[309] 0
x[310] 1
x[311] 0
x[312] 1.3402021127817182e-07
x[313] 0
x[314] 0
x[315] 0
x[316] 9.9999977983254507e-01
x[317] 0
x[318] 0.999999804728215
x[319] -7.4015601647658968e-08
x[320] 1
x[321] 1
x[322] 0
x[323] 0
x[324] 1
x[325] 0
x[326] 1
x[327] 1
x[328] 1
x[329] 1
x[330] 1
x[331] 1
x[332] 0
x[333] 0
x[334] 9.9999978149921187e-01
x[335] 0
x[336] 0
x[337] 1
x[338] 0
x[339] 9.9999986589952683e-01
x[340] 1
x[341] 0
x[342] 0
x[343] 1
x[344] 1
x[345] 0
x[346] 0
x[347] 1
x[348] 0
x[349] 1
x[350] 1.9836602423610215e-07
x[351] 1.0000000867802121e+00
x[352] 1
x[353] 0
x[354] 0
x[355] 1
x[356] 1
x[357] 0
x[358] 0
x[359] 0
x[360] 1.0000002234401433e+00
x[361] 0
x[362] 1
x[363] 1
x[364] 1
x[365] 7.3967932918608220e-08
x[366] 0
x[367] -1.3410047317030660e-07
x[368] 1.0000002208091954e+00
x[369] 0
x[370] 1
x[371] 1
x[372] 1.0000000134265770e+00
x[373] 1
x[374] 1.0000002234238650e+00
x[375] 0
x[376] 0
x[377] 1
x[378] 9.9999993031299028e-01
x[379] 0
x[380] 1
x[381] -2.2095519747189485e-07
x[382] 0
x[383] 1
x[384] 1
x[385] 1
x[386] -8.3521391190299517e-08
x[387] 0
x[388] 1
x[389] 1
x[390] 1.0000002208658003e+00
x[391] 0
x[392] 0
x[393] 0
x[394] 0
x[395] 9.9999977983254529e-01
x[396] 1.0000000867768339e+00
x[397] 1
x[398] 1
x[399] 0
x[400] 5.9294961477789779e-08
x[401] 0
x[402] 0
x[403] 9.9999977983254507e-01
x[404] 1
x[405] 1
x[406] 1
x[407] 1.0000002234340390e+00
x[408] 1
x[409] 1
x[410] -2.2095519747189485e-07
x[411] 1
x[412] -8.94003153728562e-08
x[413] 0
x[414] 1
x[415] 1.9855940220841579e-07
x[416] 0
x[417] 2.2341235430227017e-07
x[418] 0
x[419] 1
x[420] -8.1854724523632848e-08
x[421] 1
x[422] 1
x[423] 0
x[424] 2.2324266658150118e-07
x[425] 0
x[426] 0
x[427] 0
x[428] 0
x[429] 1
x[430] -8.6854724523632854e-08
x[431] 0
x[432] 0
x[433] 0
x[434] 1
x[435] 1
x[436] 1
x[437] 1
x[438] 1
x[439] 1
x[440] 1
x[441] 0
x[442] 1
x[443] -7.4015601647658968e-08
x[444] 1
x[445] 1
x[446] 0
x[447] 1
x[448] -2.1605621815712806e-07
x[449] 0
x[450] 1
x[451] 0
x[452] 0
x[453] 1
x[454] 1
x[455] 1
x[456] 0
x[457] 1
x[458] 1
x[459] 1
x[460] 1
x[461] 1
x[462] 9.9999992531299076e-01
x[463] 1
x[464] 1
x[465] 7.46353368995952e-08
x[466] 1
x[467] 1
x[468] 0
x[469] 0
x[470] 0
x[471] 0
x[472] 1
x[473] 1
x[474] 1
x[475] 1
x[476] 1
x[477] 0
x[478] 1
x[479] 0
x[480] -8.3521391190299517e-08
x[481] 0
x[482] 1
x[483] 1
x[484] 0
x[485] -2.2095519741248142e-07
x[486] 1
x[487] 0
x[488] 0
x[489] 1
x[490] 1.0000000463110665e+00
x[491] 1
x[492] 0
x[493] -1.3410047317030660e-07
x[494] 1
x[495] 0
x[496] 0
x[497] 1
x[498] 0
x[499] 1
x[500] 0
x[501] 1
x[502] 0
x[503] 0
x[504] 0
x[505] 0
x[506] 1
x[507] 1
x[508] 0
x[509] 1
x[510] 1
x[511] 0
x[512] -8.5631778435393e-08
x[513] 0
x[514] 1.0000002209100869e+00
x[515] 0
x[516] 0
x[517] 1
x[518] 0
x[519] 1
x[520] 0
x[521] 9.9999986589952683e-01
x[522] 9.9999987079850627e-01
x[523] 0
x[524] 1
x[525] 0
x[526] 0
x[527] 1
x[528] 0
x[529] 1
x[530] 0
x[531] 1
x[532] 1
x[533] 1
x[534] 0
x[535] 0
x[536] 1
x[537] 1
x[538] 1
x[539] 9.9999986589952683e-01
x[540] 0
x[541] 1
x[542] 1.0000000868023688e+00
x[543] 1
x[544] 1
x[545] 1.0000002209076204e+00
x[546] 1
x[547] 1
x[548] 1
x[549] 1
x[550] 0
x[551] 1
x[552] 1
x[553] -8.6066982039522862e-08
x[554] 9.9999977983254529e-01
x[555] 1
x[556] 0
x[557] 1
x[558] 1.3389221732351726e-07
x[559] 1
x[560] 9.9999992531299076e-01
x[561] 0
x[562] 0
x[563] 0
x[564] 0
x[565] 1
x[566] 0
x[567] 0
x[568] 0
x[569] 0
x[570] 1
x[571] 0
x[572] -8.94003153728562e-08
x[573] 1
x[574] 1
x[575] 0
x[576] 0
x[577] 1
x[578] 0
x[579] 0
x[580] 0
x[581] 1.0000000867843566e+00
x[582] 9.9999977983254529e-01
x[583] 1
x[584] 0
x[585] 0
x[586] 1
x[587] 1
x[588] 1
x[589] 9.9999986923286022e-01
x[590] 1.0000000868021488e+00
x[591] 1
x[592] 7.4611843427555517e-08
x[593] 1
x[594] 0
x[595] 0
x[596] 1
x[597] 0
x[598] 0
x[599] 0
x[600] 1
x[601] 0
x[602] 1
x[603] 0
x[604] 0
x[605] 0
x[606] 1
x[607] 1
x[608] 0
x[609] 0
x[610] -1.3410047317030660e-07
x[611] 0
x[612] 0
x[613] -7.0621653339348736e-08
x[614] 1
x[615] 0
x[616] 0
x[617] 1
x[618] 1
x[619] 1
x[620] 1.0000000867318612e+00
x[621] 1
x[622] 1.0000000892183811e+00
x[623] 1
x[624] 0
x[625] 1.0000000463338485e+00
x[626] 1
x[627] 1
x[628] 0
x[629] 1.0000000867849339e+00
x[630] 0
x[631] 7.3876482207769963e-08
x[632] 0
x[633] -4.1394246222547510e-08
x[634] 1
x[635] 1
x[636] 0
x[637] 1.3405424751816178e-07
x[638] 1
x[639] 0
x[640] 1
x[641] 0
x[642] 1
x[643] 0
x[644] 0
x[645] 0
x[646] 1
x[647] 0
x[648] 0
x[649] 0
x[650] 0
x[651] 0
x[652] 1
x[653] 1
x[654] 0
x[655] 1
x[656] 1.3392119150459346e-07
x[657] 0
x[658] 0
x[659] -2.1757441207407912e-07
x[660] 0
x[661] 1
x[662] 1
x[663] 1
x[664] -2.2095519747189485e-07
x[665] 1
x[666] 0
x[667] 1
x[668] 1
x[669] 0
x[670] 0
x[671] 1
x[672] 1.0000002208030367e+00
x[673] 9.9999980496730911e-01
x[674] 0
x[675] 1
x[676] 1.3400793840783231e-07
x[677] 1
x[678] 1
x[679] 0
x[680] -8.7578682366569937e-08
x[681] 0
x[682] 0
x[683] 0
x[684] 9.9999993031299028e-01
x[685] 0
x[686] 1
x[687] 0
x[688] -2.2350078832111819e-07
x[689] 1
x[690] 0
x[691] 0
x[692] 1
x[693] 1
x[694] 9.9999994355894462e-01
x[695] 1.00000013404914
x[696] 0
x[697] 0
x[698] 0
x[699] 0
x[700] 1
x[701] 0
x[702] 0
x[703] 1
x[704] 0
x[705] 0
x[706] 1.3403597413245314e-07
x[707] 8.9332272442878538e-08
x[708] 0
x[709] 1
x[710] 1.7618044939121839e-07
x[711] 0
x[712] 1
x[713] 0
x[714] 0
x[715] 1
x[716] 0
x[717] 0
x[718] 1
x[719] 0
x[720] 1.3471414523285930e-08
x[721] 1
x[722] -2.2095519769393945e-07
x[723] 1
x[724] 9.9999978149921187e-01
x[725] 0
x[726] 1
x[727] 1
x[728] 0.999999804728215
x[729] 4.2933845772854950e-08
x[730] 0
x[731] 0
x[732] 2.2341666297829342e-07
x[733] 0
x[734] -8.94003153728562e-08
x[735] 1
x[736] 1
x[737] 1
x[738] 0
x[739] 9.9999992840106622e-01
x[740] 0
x[741] 1
x[742] 1
x[743] 1.3400158413028837e-07
x[744] 1
x[745] 0
x[746] 0
x[747] 0
x[748] 1
x[749] 0
x[750] 1
x[751] 1
x[752] 0
x[753] 0
x[754] 1
x[755] 0
x[756] 1
x[757] 1
x[758] 0
x[759] 1
x[760] 1
x[761] 7.4581211524033353e-08
x[762] 1.0000000248391048e+00
x[763] 0
x[764] 0
x[765] 1.0000000868088090e+00
x[766] 0
x[767] 0
x[768] 1
x[769] 9.9999986927880213e-01
x[770] 0
x[771] 1
x[772] 0
x[773] 7.4639270946015389e-08
x[774] 0
x[775] 0.999999779920979
x[776] 1
x[777] 1
x[778] 1
x[779] 0
x[780] 1.3401094700765e-07
x[781] 0
x[782] 9.9999992864632714e-01
x[783] 0
x[784] 0
x[785] 0
x[786] 0
x[787] 1
x[788] 0
x[789] 0
x[790] 0
x[791] 1
x[792] 1
x[793] 0
x[794] 0
x[795] 0
x[796] 0
x[797] 0
x[798] 1
x[799] 9.9999992869335785e-01
x[800] 0
x[801] 0
x[802] 0
x[803] 0
x[804] 1.9856351725160513e-07
x[805] 1
x[806] 0
x[807] 1
x[808] 1
x[809] 0
x[810] 1
x[811] 7.44408588753255e-08
x[812] 0
x[813] 0
x[814] 1.3403343972884721e-07
x[815] 0
x[816] 0
x[817] 0
x[818] 0
x[819] -2.2095519745471784e-07
x[820] 0
x[821] 1.0000000893569663e+00
x[822] 0
x[823] 1
x[824] 0
x[825] 1
x[826] 0
x[827] 1
x[828] 0
x[829] 1
x[830] 0
x[831] 1
x[832] 0
x[833] 0
x[834] 0
x[835] 2.2340997599237914e-07
x[836] 9.9999986589952683e-01
x[837] -8.6854724486069973e-08
x[838] 1
x[839] -4.6394246333569811e-08
x[840] 1
x[841] 7.4508702141581067e-08
x[842] 1
x[843] 1
x[844] 1
x[845] 0
x[846] 1
x[847] 0
x[848] 1
x[849] 0
x[850] 0
x[851] 1.9788499035456444e-07
x[852] 0
x[853] 1
x[854] 0
x[855] 1
x[856] -8.6066982039522862e-08
x[857] 9.9999992869406240e-01
x[858] 1.0000000739709778e+00
x[859] 1
x[860] 0
x[861] 2.2344399765405395e-07
x[862] 0
x[863] 1
x[864] 1
x[865] 0
x[866] 1
x[867] 1
x[868] 0
x[869] 1
x[870] 1
x[871] 0
x[872] 1.0000002209092276e+00
x[873] 1
x[874] 1
x[875] 1
x[876] 1
x[877] 0
x[878] 1
x[879] 0
x[880] 1
x[881] 0
x[882] 0.999999806394879
x[883] 9.9999987089952724e-01
x[884] 1
x[885] 2.2343627853581620e-07
x[886] 1.9854714834601033e-07
x[887] 1
x[888] 1.0000000893288876e+00
x[889] 1
x[890] 0
x[891] 0
x[892] 2.2345046685701454e-07
x[893] 1
x[894] 1
x[895] 1
x[896] 0
x[897] 1
x[898] 1
x[899] 0
x[900] 1
x[901] 1
x[902] 0
x[903] 0
x[904] 0
x[905] 1
x[906] 0
x[907] 1
x[908] 0
x[909] 0
x[910] -4.6394246333569811e-08
x[911] 1
x[912] 1
x[913] 0
x[914] 0
x[915] 0
x[916] 0
x[917] 1
x[918] 1
x[919] 0
x[920] 1
x[921] 1
x[922] 1
x[923] 0
x[924] 1
x[925] 1
x[926] 0
x[927] 1
x[928] 0
x[929] 1
x[930] 1
x[931] 0
x[932] 1
x[933] 0
x[934] 0
x[935] 0
x[936] 0
x[937] 1.0000001984667324e+00
x[938] 0
x[939] 1
x[940] 1
x[941] 0
x[942] 0
x[943] 1
x[944] 1
x[945] 0
x[946] 0
x[947] 1
x[948] 2.2345470808159559e-07
x[949] 1
x[950] 1
x[951] 1
x[952] 9.9999986944111607e-01
x[953] 0
x[954] 0
x[955] 0
x[956] 0
x[957] 0
x[958] 1
x[959] 0
x[960] 0
x[961] 1
x[962] -8.6854724523632854e-08
x[963] 1
x[964] 1
x[965] 0
x[966] 0
x[967] 9.9999986929702833e-01
x[968] 4.9623503480003975e-08
x[969] 9.9999977987862521e-01
x[970] 0
x[971] 0
x[972] 1
x[973] 0
x[974] 2.2345512559844729e-07
x[975] 1
x[976] 0
x[977] 1
x[978] 0
x[979] 1.0000000893511576e+00
x[980] 1
x[981] 1
x[982] 0
x[983] 1
x[984] 0
x[985] 1
x[986] 1
x[987] 0
x[988] 0
x[989] 1
x[990] 1
x[991] -2.1757441212100448e-07
x[992] 0
x[993] 1
x[994] 0
x[995] 1.0000000463243
x[996] 1
x[997] 0
x[998] 1.3402647526576544e-07
x[999] -2.2350078826422630e-07
